n = 17;
lu = [|-194, 110
      |-12, 78
      |-164, 169
      |7, 178
      |-153, 3
      |-288, -75
      |-249, 49
      |-155, 170
      |-265, -155
      |138, 288
      |67, 217
      |-270, -99
      |-222, -1
      |-76, 262
      |-200, 184
      |-217, 248
      |-27, 30|];
